8
0, 707, 766, 329, 459, 360, 629, 471
707, 0, 709, 981, 460, 586, 1180, 1128
766, 709, 0, 789, 356, 405, 773, 888
329, 981, 789, 0, 607, 460, 324, 148
459, 460, 356, 607, 0, 149, 739, 742
360, 586, 405, 460, 149, 0, 597, 593
629, 1180, 773, 324, 739, 597, 0, 261
471, 1128, 888, 148, 742, 593, 261, 0
